(set-info :smt-lib-version 2.6)
(set-logic UFLIA)
(set-info :source |
Generated by: Geoff Sutcliffe
Generated on: 2026-03-11
Generator: TPTPWorld
Application: Benchmarking automated theorem provers
Time limit: 120.0

These benchmarks are translations from the TPTP Library (Thousands of
Problems for Theorem Provers), see http://www.cs.miami.edu/~tptp/

The TPTP is maintained by Geoff Sutcliffe, and he contributed this
selection of benchmarks to SMT-LIB.  They were exported from the
v9.2.1 realease of TPTP.
|)
(set-info :category "industrial")
(set-info :status "unknown")
; SZS status Success
(declare-sort $$unsorted 0)
(declare-sort tptp.list 0)
(declare-fun tptp.nil () tptp.list)
(declare-fun tptp.cons (Int tptp.list) tptp.list)
(declare-fun tptp.head (tptp.list) Int)
(declare-fun tptp.tail (tptp.list) tptp.list)
(assert (forall ((K Int) (L tptp.list)) (= (tptp.head (tptp.cons K L)) K)))
(assert (forall ((K Int) (L tptp.list)) (= (tptp.tail (tptp.cons K L)) L)))
(assert (forall ((L tptp.list)) (or (= L tptp.nil) (= L (tptp.cons (tptp.head L) (tptp.tail L))))))
(assert (forall ((K Int) (L tptp.list)) (not (= (tptp.cons K L) tptp.nil))))
(declare-fun tptp.inRange (Int tptp.list) Bool)
(assert (forall ((N Int) (L tptp.list)) (= (tptp.inRange N L) (or (= L tptp.nil) (exists ((K Int) (T tptp.list)) (and (= L (tptp.cons K T)) (<= 0 K) (< K N) (tptp.inRange N T)))))))
(assert (not (not (forall ((N Int) (L tptp.list)) (=> (tptp.inRange N L) (tptp.inRange (- N 1) L))))))
(check-sat)
(exit)
